
Gurobi 12.0.0 (linux64, C++) logging started Sun Dec 22 20:19:58 2024

Set parameter Username
Set parameter LicenseID to value 2478478
Set parameter LogFile to value "gurobi.log"

Gurobi 12.0.0 (linux64, C++) logging started Sun Dec 22 20:24:40 2024

Set parameter Username
Set parameter LicenseID to value 2602791
Set parameter LogFile to value "gurobi.log"
Academic license - for non-commercial use only - expires 2025-12-22
Gurobi Optimizer version 12.0.0 build v12.0.0rc1 (linux64 - "Ubuntu 24.04.1 LTS")

CPU model: 13th Gen Intel(R) Core(TM) i9-13900K, instruction set [SSE2|AVX|AVX2]
Thread count: 32 physical cores, 32 logical processors, using up to 32 threads

Optimize a model with 2 rows, 3 columns and 5 nonzeros
Model fingerprint: 0x8dbfbe36
Coefficient statistics:
  Matrix range     [1e+00, 3e+00]
  Objective range  [1e+00, 3e+00]
  Bounds range     [0e+00, 0e+00]
  RHS range        [1e+00, 4e+00]
Presolve removed 2 rows and 3 columns
Presolve time: 0.00s
Presolve: All rows and columns removed
Iteration    Objective       Primal Inf.    Dual Inf.      Time
       0    1.2000000e+01   0.000000e+00   0.000000e+00      0s

Solved in 0 iterations and 0.00 seconds (0.00 work units)
Optimal objective  1.200000000e+01

Gurobi 12.0.0 (linux64, C++) logging started Sun Dec 22 20:49:20 2024

Set parameter Username
Set parameter LicenseID to value 2602791
Set parameter LogFile to value "gurobi.log"
Academic license - for non-commercial use only - expires 2025-12-22
Gurobi Optimizer version 12.0.0 build v12.0.0rc1 (linux64 - "Ubuntu 24.04.1 LTS")

CPU model: 13th Gen Intel(R) Core(TM) i9-13900K, instruction set [SSE2|AVX|AVX2]
Thread count: 32 physical cores, 32 logical processors, using up to 32 threads

Optimize a model with 2 rows, 3 columns and 5 nonzeros
Model fingerprint: 0x8dbfbe36
Coefficient statistics:
  Matrix range     [1e+00, 3e+00]
  Objective range  [1e+00, 3e+00]
  Bounds range     [0e+00, 0e+00]
  RHS range        [1e+00, 4e+00]
Presolve removed 2 rows and 3 columns
Presolve time: 0.00s
Presolve: All rows and columns removed
Iteration    Objective       Primal Inf.    Dual Inf.      Time
       0    1.2000000e+01   0.000000e+00   0.000000e+00      0s

Solved in 0 iterations and 0.00 seconds (0.00 work units)
Optimal objective  1.200000000e+01

Gurobi 12.0.0 (linux64, C++) logging started Sun Dec 22 20:49:41 2024

Set parameter Username
Set parameter LicenseID to value 2602791
Set parameter LogFile to value "gurobi.log"
Academic license - for non-commercial use only - expires 2025-12-22
Gurobi Optimizer version 12.0.0 build v12.0.0rc1 (linux64 - "Ubuntu 24.04.1 LTS")

CPU model: 13th Gen Intel(R) Core(TM) i9-13900K, instruction set [SSE2|AVX|AVX2]
Thread count: 32 physical cores, 32 logical processors, using up to 32 threads

Optimize a model with 2 rows, 3 columns and 5 nonzeros
Model fingerprint: 0x8dbfbe36
Coefficient statistics:
  Matrix range     [1e+00, 3e+00]
  Objective range  [1e+00, 3e+00]
  Bounds range     [0e+00, 0e+00]
  RHS range        [1e+00, 4e+00]
Presolve removed 2 rows and 3 columns
Presolve time: 0.00s
Presolve: All rows and columns removed
Iteration    Objective       Primal Inf.    Dual Inf.      Time
       0    1.2000000e+01   0.000000e+00   0.000000e+00      0s

Solved in 0 iterations and 0.00 seconds (0.00 work units)
Optimal objective  1.200000000e+01

Gurobi 12.0.0 (linux64) logging started Sun Dec 22 20:51:03 2024

Set parameter LogFile to value "gurobi.log"
Gurobi Optimizer version 12.0.0 build v12.0.0rc1 (linux64 - "Ubuntu 24.04.1 LTS")

CPU model: 13th Gen Intel(R) Core(TM) i9-13900K, instruction set [SSE2|AVX|AVX2]
Thread count: 32 physical cores, 32 logical processors, using up to 32 threads

Optimize a model with 2 rows, 3 columns and 5 nonzeros
Model fingerprint: 0x8dbfbe36
Coefficient statistics:
  Matrix range     [1e+00, 3e+00]
  Objective range  [1e+00, 3e+00]
  Bounds range     [0e+00, 0e+00]
  RHS range        [1e+00, 4e+00]
Presolve removed 2 rows and 3 columns
Presolve time: 0.00s
Presolve: All rows and columns removed
Iteration    Objective       Primal Inf.    Dual Inf.      Time
       0    1.2000000e+01   0.000000e+00   0.000000e+00      0s

Solved in 0 iterations and 0.00 seconds (0.00 work units)
Optimal objective  1.200000000e+01

Gurobi 12.0.0 (linux64, C++) logging started Sun Dec 22 20:51:13 2024

Set parameter Username
Set parameter LicenseID to value 2602791
Set parameter LogFile to value "gurobi.log"
Academic license - for non-commercial use only - expires 2025-12-22
Gurobi Optimizer version 12.0.0 build v12.0.0rc1 (linux64 - "Ubuntu 24.04.1 LTS")

CPU model: 13th Gen Intel(R) Core(TM) i9-13900K, instruction set [SSE2|AVX|AVX2]
Thread count: 32 physical cores, 32 logical processors, using up to 32 threads

Optimize a model with 2 rows, 3 columns and 5 nonzeros
Model fingerprint: 0x8dbfbe36
Coefficient statistics:
  Matrix range     [1e+00, 3e+00]
  Objective range  [1e+00, 3e+00]
  Bounds range     [0e+00, 0e+00]
  RHS range        [1e+00, 4e+00]
Presolve removed 2 rows and 3 columns
Presolve time: 0.00s
Presolve: All rows and columns removed
Iteration    Objective       Primal Inf.    Dual Inf.      Time
       0    1.2000000e+01   0.000000e+00   0.000000e+00      0s

Solved in 0 iterations and 0.00 seconds (0.00 work units)
Optimal objective  1.200000000e+01

Gurobi 12.0.0 (linux64, C++) logging started Sun Dec 22 20:53:51 2024

Set parameter Username
Set parameter LicenseID to value 2602791
Set parameter LogFile to value "gurobi.log"
Academic license - for non-commercial use only - expires 2025-12-22
Gurobi Optimizer version 12.0.0 build v12.0.0rc1 (linux64 - "Ubuntu 24.04.1 LTS")

CPU model: 13th Gen Intel(R) Core(TM) i9-13900K, instruction set [SSE2|AVX|AVX2]
Thread count: 32 physical cores, 32 logical processors, using up to 32 threads

Optimize a model with 2 rows, 3 columns and 5 nonzeros
Model fingerprint: 0x8dbfbe36
Coefficient statistics:
  Matrix range     [1e+00, 3e+00]
  Objective range  [1e+00, 3e+00]
  Bounds range     [0e+00, 0e+00]
  RHS range        [1e+00, 4e+00]
Presolve removed 2 rows and 3 columns
Presolve time: 0.00s
Presolve: All rows and columns removed
Iteration    Objective       Primal Inf.    Dual Inf.      Time
       0    1.2000000e+01   0.000000e+00   0.000000e+00      0s

Solved in 0 iterations and 0.00 seconds (0.00 work units)
Optimal objective  1.200000000e+01

Gurobi 12.0.0 (linux64) logging started Sun Dec 22 20:54:04 2024

Set parameter LogFile to value "gurobi.log"
Gurobi Optimizer version 12.0.0 build v12.0.0rc1 (linux64 - "Ubuntu 24.04.1 LTS")

CPU model: 13th Gen Intel(R) Core(TM) i9-13900K, instruction set [SSE2|AVX|AVX2]
Thread count: 32 physical cores, 32 logical processors, using up to 32 threads

Optimize a model with 2 rows, 3 columns and 5 nonzeros
Model fingerprint: 0x8dbfbe36
Coefficient statistics:
  Matrix range     [1e+00, 3e+00]
  Objective range  [1e+00, 3e+00]
  Bounds range     [0e+00, 0e+00]
  RHS range        [1e+00, 4e+00]
Presolve removed 2 rows and 3 columns
Presolve time: 0.00s
Presolve: All rows and columns removed
Iteration    Objective       Primal Inf.    Dual Inf.      Time
       0    1.2000000e+01   0.000000e+00   0.000000e+00      0s

Solved in 0 iterations and 0.00 seconds (0.00 work units)
Optimal objective  1.200000000e+01

Gurobi 12.0.0 (linux64, C++) logging started Sun Dec 22 20:54:12 2024

Set parameter Username
Set parameter LicenseID to value 2602791
Set parameter LogFile to value "gurobi.log"
Academic license - for non-commercial use only - expires 2025-12-22
Gurobi Optimizer version 12.0.0 build v12.0.0rc1 (linux64 - "Ubuntu 24.04.1 LTS")

CPU model: 13th Gen Intel(R) Core(TM) i9-13900K, instruction set [SSE2|AVX|AVX2]
Thread count: 32 physical cores, 32 logical processors, using up to 32 threads

Optimize a model with 2 rows, 3 columns and 5 nonzeros
Model fingerprint: 0x8dbfbe36
Coefficient statistics:
  Matrix range     [1e+00, 3e+00]
  Objective range  [1e+00, 3e+00]
  Bounds range     [0e+00, 0e+00]
  RHS range        [1e+00, 4e+00]
Presolve removed 2 rows and 3 columns
Presolve time: 0.00s
Presolve: All rows and columns removed
Iteration    Objective       Primal Inf.    Dual Inf.      Time
       0    1.2000000e+01   0.000000e+00   0.000000e+00      0s

Solved in 0 iterations and 0.00 seconds (0.00 work units)
Optimal objective  1.200000000e+01

Gurobi 12.0.0 (linux64) logging started Sun Dec 22 20:54:21 2024

Set parameter LogFile to value "gurobi.log"
Gurobi Optimizer version 12.0.0 build v12.0.0rc1 (linux64 - "Ubuntu 24.04.1 LTS")

CPU model: 13th Gen Intel(R) Core(TM) i9-13900K, instruction set [SSE2|AVX|AVX2]
Thread count: 32 physical cores, 32 logical processors, using up to 32 threads

Optimize a model with 2 rows, 3 columns and 5 nonzeros
Model fingerprint: 0x8dbfbe36
Coefficient statistics:
  Matrix range     [1e+00, 3e+00]
  Objective range  [1e+00, 3e+00]
  Bounds range     [0e+00, 0e+00]
  RHS range        [1e+00, 4e+00]
Presolve removed 2 rows and 3 columns
Presolve time: 0.00s
Presolve: All rows and columns removed
Iteration    Objective       Primal Inf.    Dual Inf.      Time
       0    1.2000000e+01   0.000000e+00   0.000000e+00      0s

Solved in 0 iterations and 0.00 seconds (0.00 work units)
Optimal objective  1.200000000e+01

Gurobi 12.0.0 (linux64) logging started Sun Dec 22 21:22:31 2024

Set parameter LogFile to value "gurobi.log"
Gurobi Optimizer version 12.0.0 build v12.0.0rc1 (linux64 - "Ubuntu 24.04.1 LTS")

CPU model: 13th Gen Intel(R) Core(TM) i9-13900K, instruction set [SSE2|AVX|AVX2]
Thread count: 32 physical cores, 32 logical processors, using up to 32 threads

Optimize a model with 2 rows, 3 columns and 5 nonzeros
Model fingerprint: 0x8dbfbe36
Coefficient statistics:
  Matrix range     [1e+00, 3e+00]
  Objective range  [1e+00, 3e+00]
  Bounds range     [0e+00, 0e+00]
  RHS range        [1e+00, 4e+00]
Presolve removed 2 rows and 3 columns
Presolve time: 0.00s
Presolve: All rows and columns removed
Iteration    Objective       Primal Inf.    Dual Inf.      Time
       0    1.2000000e+01   0.000000e+00   0.000000e+00      0s

Solved in 0 iterations and 0.00 seconds (0.00 work units)
Optimal objective  1.200000000e+01

Gurobi 12.0.0 (linux64) logging started Sun Dec 22 21:30:06 2024

Set parameter LogFile to value "gurobi.log"
Gurobi Optimizer version 12.0.0 build v12.0.0rc1 (linux64 - "Ubuntu 24.04.1 LTS")

CPU model: 13th Gen Intel(R) Core(TM) i9-13900K, instruction set [SSE2|AVX|AVX2]
Thread count: 32 physical cores, 32 logical processors, using up to 32 threads

Optimize a model with 2 rows, 3 columns and 5 nonzeros
Model fingerprint: 0x8dbfbe36
Coefficient statistics:
  Matrix range     [1e+00, 3e+00]
  Objective range  [1e+00, 3e+00]
  Bounds range     [0e+00, 0e+00]
  RHS range        [1e+00, 4e+00]
Presolve removed 2 rows and 3 columns
Presolve time: 0.00s
Presolve: All rows and columns removed
Iteration    Objective       Primal Inf.    Dual Inf.      Time
       0    1.2000000e+01   0.000000e+00   0.000000e+00      0s

Solved in 0 iterations and 0.00 seconds (0.00 work units)
Optimal objective  1.200000000e+01

Gurobi 12.0.0 (linux64) logging started Sun Dec 22 23:56:11 2024

Set parameter LogFile to value "gurobi.log"
Gurobi Optimizer version 12.0.0 build v12.0.0rc1 (linux64 - "Ubuntu 24.04.1 LTS")

CPU model: 13th Gen Intel(R) Core(TM) i9-13900K, instruction set [SSE2|AVX|AVX2]
Thread count: 32 physical cores, 32 logical processors, using up to 32 threads

Optimize a model with 2 rows, 3 columns and 5 nonzeros
Model fingerprint: 0x8dbfbe36
Coefficient statistics:
  Matrix range     [1e+00, 3e+00]
  Objective range  [1e+00, 3e+00]
  Bounds range     [0e+00, 0e+00]
  RHS range        [1e+00, 4e+00]
Presolve removed 2 rows and 3 columns
Presolve time: 0.00s
Presolve: All rows and columns removed
Iteration    Objective       Primal Inf.    Dual Inf.      Time
       0    1.2000000e+01   0.000000e+00   0.000000e+00      0s

Solved in 0 iterations and 0.00 seconds (0.00 work units)
Optimal objective  1.200000000e+01

Gurobi 12.0.0 (linux64) logging started Sun Dec 22 23:58:39 2024

Set parameter LogFile to value "gurobi.log"
Gurobi Optimizer version 12.0.0 build v12.0.0rc1 (linux64 - "Ubuntu 24.04.1 LTS")

CPU model: 13th Gen Intel(R) Core(TM) i9-13900K, instruction set [SSE2|AVX|AVX2]
Thread count: 32 physical cores, 32 logical processors, using up to 32 threads

Optimize a model with 2 rows, 3 columns and 5 nonzeros
Model fingerprint: 0x8dbfbe36
Coefficient statistics:
  Matrix range     [1e+00, 3e+00]
  Objective range  [1e+00, 3e+00]
  Bounds range     [0e+00, 0e+00]
  RHS range        [1e+00, 4e+00]
Presolve removed 2 rows and 3 columns
Presolve time: 0.00s
Presolve: All rows and columns removed
Iteration    Objective       Primal Inf.    Dual Inf.      Time
       0    1.2000000e+01   0.000000e+00   0.000000e+00      0s

Solved in 0 iterations and 0.00 seconds (0.00 work units)
Optimal objective  1.200000000e+01
